words_hard_train/4604.qaiger
aag 35 16 0 1 19
2
4
8
12
14
18
20
28
32
36
38
42
44
50
52
58
71
6 3 5
10 6 9
16 13 15
22 19 21
24 16 22
26 10 24
30 27 28
34 31 32
40 36 38
46 42 44
48 40 46
54 50 52
56 48 54
60 56 58
62 61 8
64 63 6
66 24 29
68 64 66
70 34 69
i0 1 x2[5]
i1 1 x2[6]
i2 1 x2[0]
i3 1 x2[3]
i4 1 x2[4]
i5 1 x2[1]
i6 1 x2[2]
i7 1 x2[7]
i8 2 y2[7]
i9 2 y2[1]
i10 2 y2[3]
i11 2 y2[0]
i12 2 y2[4]
i13 2 y2[5]
i14 2 y2[6]
i15 2 y2[2]
o0 bv[0]
c
simplified
  >
    1
    or
      subtract
        1 x2
        1
      invert
        2 y2
