words_hard_train/4604.qaiger.qdimacs
p cnf 35 58
a 1 2 4 6 7 9 10 14 0
e 3 5 8 11 12 13 15 16 17 18 19 20 21 22 23 24 25 26 27 28 29 30 31 32 33 34 35 0
1 2 3 0
-1 -3 0
-2 -3 0
-3 4 5 0
3 -5 0
-4 -5 0
6 7 8 0
-6 -8 0
-7 -8 0
9 10 11 0
-9 -11 0
-10 -11 0
-8 -11 12 0
8 -12 0
11 -12 0
-5 -12 13 0
5 -13 0
12 -13 0
13 -14 15 0
-13 -15 0
14 -15 0
15 -16 17 0
-15 -17 0
16 -17 0
-18 -19 20 0
18 -20 0
19 -20 0
-21 -22 23 0
21 -23 0
22 -23 0
-20 -23 24 0
20 -24 0
23 -24 0
-25 -26 27 0
25 -27 0
26 -27 0
-24 -27 28 0
24 -28 0
27 -28 0
-28 -29 30 0
28 -30 0
29 -30 0
30 -4 31 0
-30 -31 0
4 -31 0
31 -3 32 0
-31 -32 0
3 -32 0
-12 14 33 0
12 -33 0
-14 -33 0
-32 -33 34 0
32 -34 0
33 -34 0
-17 34 35 0
17 -35 0
-34 -35 0
-35 0
